LengthSchedulingHorizon=9209;
nAttributes=2;
SetupCosts=[[0, 0], [6, 25], [25, 12]];
SetupTimes=[[0, 0], [13, 6], [6, 13]];
nMachines=5;
MinCap=[0, 0, 0, 0, 0];
MaxCap=[16, 92, 81, 16, 70];

initState=[1, 2, 1, 1, 2];
nShifts=5;
ShiftStartTimes = [[283, 3092, 4966, 6058, 7569], [0, 0, 0, 586, 7712], [0, 1949, 4285, 5669, 8982], [286, 1651, 5412, 6549, 7182], [651, 2622, 3517, 5921, 8518]];
ShiftEndTimes = [[2516, 4554, 5838, 7346, 8975], [0, 0, 0, 6785, 9052], [0, 3972, 5612, 8756, 9162], [1474, 4610, 6285, 7166, 9123], [2188, 3347, 5631, 8134, 9062]];
nJobs=100;
EligibleMachines = [{4, 5}, {4}, {4}, {1}, {3}, {3, 4}, {3, 4}, {1, 2, 4, 5}, {2, 3, 4}, {1, 2, 5}, {1, 4}, {5}, {3}, {5}, {3, 4, 5}, {1, 2, 5}, {1, 4}, {2, 5}, {3, 5}, {4}, {5}, {1, 2}, {3, 4}, {2}, {1}, {3, 5}, {2, 5}, {1, 2}, {3, 4, 5}, {1, 2, 3}, {1, 2, 4}, {2, 3, 5}, {3, 5}, {1, 2, 3}, {5}, {3, 5}, {2, 3, 4, 5}, {3}, {5}, {4, 5}, {1}, {3}, {1, 2, 4, 5}, {3}, {1, 3}, {1}, {1, 2, 3, 5}, {3}, {1, 3}, {2, 5}, {3}, {1, 4, 5}, {2, 3}, {2}, {3, 4}, {1, 3}, {1, 4}, {2, 3}, {4, 5}, {1, 5}, {2}, {4, 5}, {1, 5}, {2, 4, 5}, {2}, {4}, {3, 4}, {2, 5}, {3}, {4, 5}, {1, 2}, {1, 4}, {1, 2}, {2, 5}, {1, 3, 4, 5}, {1}, {3, 4, 5}, {2}, {4}, {2, 3}, {5}, {3, 4, 5}, {3}, {5}, {1, 3}, {3}, {1, 2, 3}, {1}, {3, 5}, {5}, {2}, {1, 2, 5}, {4}, {2}, {2}, {2}, {2, 4}, {1, 3, 5}, {3, 4}, {2, 4}];
EarliestStart=[6, 204, 72, 260, 287, 401, 210, 343, 284, 168, 510, 395, 478, 475, 361, 197, 497, 352, 300, 23, 223, 154, 8, 291, 282, 330, 433, 79, 218, 478, 295, 178, 433, 276, 283, 347, 380, 300, 50, 12, 248, 521, 210, 374, 8, 350, 338, 175, 260, 229, 471, 440, 32, 221, 361, 374, 196, 304, 501, 479, 491, 130, 125, 329, 395, 331, 484, 201, 191, 14, 340, 196, 301, 287, 298, 224, 466, 156, 282, 454, 514, 257, 341, 511, 6, 378, 146, 212, 438, 432, 150, 75, 322, 94, 44, 117, 395, 404, 501, 200];
LatestEnd=[180, 322, 143, 297, 323, 500, 306, 457, 285, 245, 581, 481, 563, 569, 439, 242, 628, 398, 337, 104, 329, 278, 84, 399, 404, 426, 495, 186, 296, 604, 418, 266, 465, 343, 442, 414, 403, 427, 197, 20, 383, 605, 211, 439, 33, 398, 426, 305, 312, 348, 598, 543, 205, 281, 434, 482, 204, 416, 548, 579, 528, 135, 159, 385, 500, 342, 518, 208, 299, 183, 373, 206, 339, 328, 378, 239, 597, 186, 353, 556, 523, 426, 353, 594, 128, 523, 233, 377, 443, 592, 193, 156, 355, 127, 146, 272, 469, 498, 586, 213];
MinTime=[94, 74, 41, 28, 25, 80, 56, 72, 1, 55, 63, 50, 50, 50, 45, 32, 79, 28, 30, 65, 92, 99, 69, 85, 82, 50, 56, 54, 40, 64, 63, 55, 26, 45, 95, 48, 13, 71, 94, 7, 88, 84, 1, 39, 20, 26, 45, 69, 47, 75, 85, 75, 90, 32, 41, 96, 6, 57, 47, 75, 25, 3, 33, 37, 93, 9, 25, 6, 55, 97, 20, 8, 35, 24, 77, 9, 98, 30, 65, 56, 6, 87, 8, 65, 80, 88, 66, 95, 4, 100, 43, 57, 25, 20, 82, 86, 52, 64, 47, 12];
MaxTime=[100, 100, 100, 100, 100, 100, 100, 100, 100, 100, 100, 100, 100, 100, 100, 100, 100, 100, 100, 100, 100, 100, 100, 100, 100, 100, 100, 100, 100, 100, 100, 100, 100, 100, 100, 100, 100, 100, 100, 100, 100, 100, 100, 100, 100, 100, 100, 100, 100, 100, 100, 100, 100, 100, 100, 100, 100, 100, 100, 100, 100, 100, 100, 100, 100, 100, 100, 100, 100, 100, 100, 100, 100, 100, 100, 100, 100, 100, 100, 100, 100, 100, 100, 100, 100, 100, 100, 100, 100, 100, 100, 100, 100, 100, 100, 100, 100, 100, 100, 100];
JobSize=[2, 2, 3, 1, 4, 4, 3, 4, 1, 2, 5, 1, 2, 2, 2, 5, 1, 2, 3, 2, 4, 1, 2, 2, 3, 4, 2, 4, 1, 4, 4, 5, 2, 3, 5, 2, 4, 1, 4, 2, 4, 1, 5, 1, 2, 2, 5, 5, 5, 2, 2, 5, 5, 1, 1, 1, 2, 1, 3, 2, 4, 5, 5, 2, 1, 5, 5, 5, 2, 3, 1, 5, 4, 1, 4, 3, 5, 4, 5, 1, 3, 1, 1, 3, 5, 4, 1, 5, 2, 3, 5, 5, 2, 2, 5, 5, 1, 5, 1, 1];
Attribute=[1, 2, 1, 1, 2, 1, 2, 1, 2, 1, 2, 1, 2, 1, 1, 1, 2, 2, 2, 2, 2, 1, 1, 1, 2, 2, 1, 2, 2, 1, 1, 2, 1, 2, 1, 1, 2, 2, 2, 1, 2, 2, 1, 2, 2, 1, 2, 1, 1, 1, 1, 2, 1, 1, 2, 2, 2, 2, 2, 1, 2, 1, 1, 1, 1, 2, 1, 2, 2, 1, 1, 2, 2, 1, 1, 2, 2, 1, 1, 1, 1, 1, 1, 2, 1, 2, 2, 1, 1, 1, 1, 2, 1, 1, 2, 1, 1, 2, 2, 1];

upper_bound_integer_objective=180862500;
mult_factor_total_runtime=1300;
mult_factor_finished_toolate=1722500;
mult_factor_total_setuptimes=0;
mult_factor_total_setupcosts=689;
running_time_bound=5216;
min_duration=1;
max_duration=100;
max_setup_time=13;
max_setup_cost=25;
